100
32
13
27
7
18
24
18
19
19
5
19
3
9
14
10
8
7
8
9
16
8
10
1
3
19
1
1
2
2
2
1
2
18
5
1
2
17
1
1
2
1
1
6
1
1
1
17
3
4
12
2
1
1
2
1
1
2
1
1
4
2
17
4
2
17
1
1
3
18
1
1
3
4
1
2
3
16
1
1
18
5
1
1
1
7
3
3
2
6
1
7
3
1
21
2
5
1
1
4
1
1